set PLACES := LT, LE, MT, NA, PT, SA, RM;

set BUILDINGS := LT, LE, MT, NA, PT, SA, RM;

param INCIDENCE_MATRIX : LT LE MT NA PT SA RM :=
LT 1 0 0 1 0 0 1
LE 0 1 1 0 0 0 0
MT 0 1 1 0 1 0 0
NA 1 0 0 1 1 1 0
PT 0 0 1 1 1 1 0
SA 0 0 0 1 1 1 0
RM 1 0 0 0 0 0 1 ;

param COST :=
LT 1
LE 1
MT 2
NA 1
PT 1
SA 1
RM 1 ;